c colouring generated by benchmark framework
p edge 500 58862
v 1 14
v 2 6
v 3 63
v 4 69
v 5 12
v 6 115
v 7 99
v 8 1
v 9 103
v 10 97
v 11 34
v 12 30
v 13 21
v 14 92
v 15 7
v 16 10
v 17 24
v 18 84
v 19 35
v 20 90
v 21 55
v 22 118
v 23 26
v 24 54
v 25 84
v 26 110
v 27 26
v 28 60
v 29 71
v 30 65
v 31 98
v 32 65
v 33 40
v 34 13
v 35 80
v 36 90
v 37 65
v 38 0
v 39 109
v 40 24
v 41 118
v 42 48
v 43 35
v 44 58
v 45 92
v 46 64
v 47 40
v 48 13
v 49 94
v 50 82
v 51 120
v 52 91
v 53 50
v 54 42
v 55 36
v 56 64
v 57 50
v 58 113
v 59 35
v 60 44
v 61 49
v 62 101
v 63 0
v 64 120
v 65 75
v 66 64
v 67 89
v 68 113
v 69 53
v 70 85
v 71 59
v 72 79
v 73 17
v 74 58
v 75 39
v 76 38
v 77 54
v 78 100
v 79 14
v 80 61
v 81 81
v 82 5
v 83 54
v 84 100
v 85 73
v 86 53
v 87 110
v 88 73
v 89 10
v 90 73
v 91 87
v 92 94
v 93 9
v 94 98
v 95 20
v 96 17
v 97 107
v 98 62
v 99 78
v 100 19
v 101 72
v 102 53
v 103 96
v 104 63
v 105 5
v 106 16
v 107 76
v 108 41
v 109 84
v 110 68
v 111 95
v 112 47
v 113 82
v 114 89
v 115 67
v 116 53
v 117 76
v 118 29
v 119 73
v 120 28
v 121 85
v 122 50
v 123 22
v 124 48
v 125 93
v 126 37
v 127 31
v 128 44
v 129 3
v 130 69
v 131 71
v 132 103
v 133 114
v 134 102
v 135 8
v 136 120
v 137 8
v 138 22
v 139 67
v 140 18
v 141 126
v 142 116
v 143 106
v 144 99
v 145 15
v 146 45
v 147 107
v 148 17
v 149 46
v 150 21
v 151 108
v 152 27
v 153 34
v 154 3
v 155 91
v 156 94
v 157 108
v 158 117
v 159 102
v 160 49
v 161 18
v 162 23
v 163 77
v 164 30
v 165 117
v 166 63
v 167 8
v 168 52
v 169 19
v 170 16
v 171 21
v 172 115
v 173 39
v 174 91
v 175 19
v 176 74
v 177 123
v 178 34
v 179 58
v 180 5
v 181 39
v 182 18
v 183 119
v 184 85
v 185 22
v 186 54
v 187 43
v 188 68
v 189 88
v 190 33
v 191 112
v 192 14
v 193 73
v 194 81
v 195 124
v 196 99
v 197 24
v 198 74
v 199 82
v 200 6
v 201 9
v 202 95
v 203 20
v 204 8
v 205 89
v 206 87
v 207 7
v 208 33
v 209 121
v 210 113
v 211 31
v 212 52
v 213 111
v 214 36
v 215 91
v 216 23
v 217 25
v 218 27
v 219 28
v 220 33
v 221 16
v 222 16
v 223 88
v 224 2
v 225 24
v 226 21
v 227 34
v 228 26
v 229 107
v 230 61
v 231 2
v 232 125
v 233 56
v 234 15
v 235 10
v 236 17
v 237 61
v 238 1
v 239 4
v 240 71
v 241 67
v 242 6
v 243 2
v 244 11
v 245 41
v 246 74
v 247 85
v 248 13
v 249 98
v 250 70
v 251 36
v 252 44
v 253 88
v 254 96
v 255 33
v 256 47
v 257 125
v 258 71
v 259 46
v 260 39
v 261 85
v 262 4
v 263 11
v 264 88
v 265 104
v 266 28
v 267 111
v 268 77
v 269 80
v 270 0
v 271 57
v 272 1
v 273 43
v 274 21
v 275 6
v 276 87
v 277 32
v 278 127
v 279 62
v 280 2
v 281 46
v 282 44
v 283 2
v 284 118
v 285 66
v 286 113
v 287 60
v 288 70
v 289 108
v 290 72
v 291 68
v 292 86
v 293 124
v 294 92
v 295 119
v 296 4
v 297 55
v 298 115
v 299 51
v 300 10
v 301 75
v 302 105
v 303 124
v 304 109
v 305 77
v 306 66
v 307 56
v 308 9
v 309 36
v 310 19
v 311 114
v 312 49
v 313 60
v 314 104
v 315 112
v 316 8
v 317 47
v 318 70
v 319 56
v 320 93
v 321 69
v 322 57
v 323 57
v 324 16
v 325 105
v 326 48
v 327 56
v 328 117
v 329 24
v 330 32
v 331 99
v 332 46
v 333 126
v 334 127
v 335 38
v 336 32
v 337 76
v 338 65
v 339 42
v 340 80
v 341 101
v 342 78
v 343 90
v 344 4
v 345 12
v 346 106
v 347 59
v 348 37
v 349 52
v 350 59
v 351 93
v 352 20
v 353 38
v 354 120
v 355 114
v 356 36
v 357 104
v 358 69
v 359 8
v 360 76
v 361 83
v 362 41
v 363 0
v 364 96
v 365 79
v 366 27
v 367 61
v 368 41
v 369 26
v 370 23
v 371 45
v 372 81
v 373 79
v 374 93
v 375 7
v 376 64
v 377 118
v 378 13
v 379 6
v 380 122
v 381 43
v 382 57
v 383 110
v 384 43
v 385 51
v 386 30
v 387 122
v 388 32
v 389 40
v 390 31
v 391 7
v 392 46
v 393 78
v 394 1
v 395 55
v 396 79
v 397 27
v 398 78
v 399 97
v 400 100
v 401 106
v 402 102
v 403 29
v 404 52
v 405 37
v 406 58
v 407 66
v 408 12
v 409 15
v 410 1
v 411 75
v 412 0
v 413 1
v 414 10
v 415 45
v 416 38
v 417 104
v 418 48
v 419 14
v 420 81
v 421 18
v 422 60
v 423 29
v 424 5
v 425 11
v 426 26
v 427 16
v 428 109
v 429 40
v 430 4
v 431 103
v 432 42
v 433 74
v 434 80
v 435 62
v 436 59
v 437 22
v 438 47
v 439 127
v 440 68
v 441 24
v 442 123
v 443 63
v 444 97
v 445 45
v 446 100
v 447 72
v 448 89
v 449 40
v 450 62
v 451 119
v 452 83
v 453 83
v 454 9
v 455 121
v 456 84
v 457 55
v 458 25
v 459 63
v 460 95
v 461 42
v 462 82
v 463 105
v 464 30
v 465 95
v 466 51
v 467 77
v 468 10
v 469 44
v 470 31
v 471 29
v 472 56
v 473 28
v 474 33
v 475 117
v 476 43
v 477 11
v 478 116
v 479 86
v 480 3
v 481 49
v 482 50
v 483 71
v 484 123
v 485 50
v 486 12
v 487 35
v 488 126
v 489 25
v 490 114
v 491 75
v 492 86
v 493 72
v 494 23
v 495 9
v 496 47
v 497 111
v 498 30
v 499 101
v 500 51
